(set-logic HORN)

(declare-datatypes ((Nat_0 0)) (((zero_0 ) (succ_0  (p_0 Nat_0)))))

(declare-fun |diseqNat_0| ( Nat_0 Nat_0 ) Bool)
(declare-fun |CHC_COMP_FALSE| ( ) Bool)
(declare-fun |altmul_0| ( Nat_0 Nat_0 Nat_0 ) Bool)
(declare-fun |plus_0| ( Nat_0 Nat_0 Nat_0 ) Bool)

(assert
  (forall ( (A Nat_0) (B Nat_0) (v_2 Nat_0) ) 
    (=>
      (and
        (and (= A (succ_0 B)) (= v_2 zero_0))
      )
      (diseqNat_0 v_2 A)
    )
  )
)
(assert
  (forall ( (A Nat_0) (B Nat_0) (v_2 Nat_0) ) 
    (=>
      (and
        (and (= A (succ_0 B)) (= v_2 zero_0))
      )
      (diseqNat_0 A v_2)
    )
  )
)
(assert
  (forall ( (A Nat_0) (B Nat_0) (C Nat_0) (D Nat_0) ) 
    (=>
      (and
        (diseqNat_0 C D)
        (and (= B (succ_0 C)) (= A (succ_0 D)))
      )
      (diseqNat_0 B A)
    )
  )
)
(assert
  (forall ( (A Nat_0) (B Nat_0) (C Nat_0) (D Nat_0) (E Nat_0) ) 
    (=>
      (and
        (plus_0 C D E)
        (and (= A (succ_0 D)) (= B (succ_0 C)))
      )
      (plus_0 B A E)
    )
  )
)
(assert
  (forall ( (A Nat_0) (v_1 Nat_0) (v_2 Nat_0) ) 
    (=>
      (and
        (and true (= v_1 zero_0) (= v_2 A))
      )
      (plus_0 A v_1 v_2)
    )
  )
)
(assert
  (forall ( (A Nat_0) (B Nat_0) (C Nat_0) (D Nat_0) (E Nat_0) (F Nat_0) (G Nat_0) (H Nat_0) (v_8 Nat_0) ) 
    (=>
      (and
        (plus_0 C F G)
        (altmul_0 D H G)
        (plus_0 E v_8 D)
        (plus_0 F E H)
        (and (= v_8 (succ_0 zero_0)) (= B (succ_0 H)) (= A (succ_0 G)))
      )
      (altmul_0 C B A)
    )
  )
)
(assert
  (forall ( (A Nat_0) (B Nat_0) (v_2 Nat_0) (v_3 Nat_0) ) 
    (=>
      (and
        (and (= A (succ_0 B)) (= v_2 zero_0) (= v_3 zero_0))
      )
      (altmul_0 v_2 A v_3)
    )
  )
)
(assert
  (forall ( (A Nat_0) (v_1 Nat_0) (v_2 Nat_0) ) 
    (=>
      (and
        (and true (= v_1 zero_0) (= v_2 zero_0))
      )
      (altmul_0 v_1 v_2 A)
    )
  )
)
(assert
  (forall ( (A Nat_0) (B Nat_0) (C Nat_0) (D Nat_0) (E Nat_0) (F Nat_0) (G Nat_0) ) 
    (=>
      (and
        (altmul_0 B E A)
        (altmul_0 D C G)
        (altmul_0 C E F)
        (diseqNat_0 B D)
        (altmul_0 A F G)
        true
      )
      CHC_COMP_FALSE
    )
  )
)
(assert
  (forall ( (A Nat_0) (B Nat_0) (C Nat_0) (D Nat_0) (E Nat_0) (F Nat_0) (G Nat_0) ) 
    (=>
      (and
        (plus_0 B E A)
        (plus_0 D C G)
        (plus_0 C E F)
        (diseqNat_0 B D)
        (plus_0 A F G)
        true
      )
      CHC_COMP_FALSE
    )
  )
)
(assert
  (forall ( (A Nat_0) (B Nat_0) (C Nat_0) (D Nat_0) ) 
    (=>
      (and
        (diseqNat_0 A B)
        (plus_0 B D C)
        (plus_0 A C D)
        true
      )
      CHC_COMP_FALSE
    )
  )
)
(assert
  (forall ( (A Nat_0) (B Nat_0) (v_2 Nat_0) ) 
    (=>
      (and
        (diseqNat_0 A B)
        (plus_0 A B v_2)
        (= v_2 zero_0)
      )
      CHC_COMP_FALSE
    )
  )
)
(assert
  (forall ( (A Nat_0) (B Nat_0) (v_2 Nat_0) ) 
    (=>
      (and
        (diseqNat_0 A B)
        (plus_0 A v_2 B)
        (= v_2 zero_0)
      )
      CHC_COMP_FALSE
    )
  )
)
(assert
  (forall ( (CHC_COMP_UNUSED Bool) ) 
    (=>
      (and
        CHC_COMP_FALSE
      )
      false
    )
  )
)

(check-sat)
(exit)
